
Gurobi 10.0.2 (win64, Python) logging started Sun Feb  4 12:48:42 2024

Set parameter Username
Set parameter LogFile to value "C:\Users\ghadi\Downloads\Discrete Optimization Project - Gurobi- Instance 6\Discrete Optimization Project - Instance 6-Log File.log"
Academic license - for non-commercial use only - expires 2024-07-07
Set parameter Threads to value 1
Set parameter Presolve to value 1
Set parameter Method to value 0
Set parameter TimeLimit to value 1200
Set parameter PreSparsify to value 1
Gurobi Optimizer version 10.0.2 build v10.0.2rc0 (win64)

CPU model: 12th Gen Intel(R) Core(TM) i5-1235U, instruction set [SSE2|AVX|AVX2]
Thread count: 10 physical cores, 12 logical processors, using up to 1 threads

Optimize a model with 21322390 rows, 1956190 columns and 27435850 nonzeros
Model fingerprint: 0xc62f1b43
Variable types: 0 continuous, 1956190 integer (1956190 binary)
Coefficient statistics:
  Matrix range     [1e+00, 1e+00]
  Objective range  [5e-05, 6e-01]
  Bounds range     [1e+00, 1e+00]
  RHS range        [1e+00, 1e+00]
Presolve removed 11843510 rows and 1691930 columns (presolve time = 5s) ...
Presolve removed 12713373 rows and 1691930 columns (presolve time = 10s) ...
Presolve removed 12713373 rows and 1691930 columns (presolve time = 15s) ...
Presolve removed 13363674 rows and 1691930 columns (presolve time = 20s) ...
Presolve removed 13366327 rows and 1691930 columns (presolve time = 25s) ...
Presolve removed 13367940 rows and 1691930 columns (presolve time = 30s) ...
Presolve removed 13369935 rows and 1691930 columns (presolve time = 35s) ...

Gurobi 10.0.2 (win64, Python) logging started Sun Feb  4 13:10:52 2024

Set parameter Username
Set parameter LogFile to value "C:\Users\ghadi\Downloads\Discrete Optimization Project - Gurobi- Instance 6\Discrete Optimization Project - Instance 6-Log File.log"
Academic license - for non-commercial use only - expires 2024-07-07
Set parameter Threads to value 1
Set parameter Presolve to value 1
Set parameter Method to value 0
Set parameter TimeLimit to value 1200
Set parameter PreSparsify to value 1
Gurobi Optimizer version 10.0.2 build v10.0.2rc0 (win64)

CPU model: 12th Gen Intel(R) Core(TM) i5-1235U, instruction set [SSE2|AVX|AVX2]
Thread count: 10 physical cores, 12 logical processors, using up to 1 threads

Optimize a model with 21322390 rows, 1956190 columns and 27435850 nonzeros
Model fingerprint: 0xc62f1b43
Variable types: 0 continuous, 1956190 integer (1956190 binary)
Coefficient statistics:
  Matrix range     [1e+00, 1e+00]
  Objective range  [5e-05, 6e-01]
  Bounds range     [1e+00, 1e+00]
  RHS range        [1e+00, 1e+00]
Presolve removed 11843510 rows and 1691930 columns (presolve time = 5s) ...
Presolve removed 12713373 rows and 1691930 columns (presolve time = 10s) ...
Presolve removed 12713373 rows and 1691930 columns (presolve time = 15s) ...
Presolve removed 13363915 rows and 1691930 columns (presolve time = 20s) ...
Presolve removed 13366413 rows and 1691930 columns (presolve time = 25s) ...
Presolve removed 13368201 rows and 1691930 columns (presolve time = 30s) ...
Presolve removed 13370144 rows and 1691930 columns (presolve time = 35s) ...
Presolve removed 13371860 rows and 1691930 columns (presolve time = 40s) ...
Presolve removed 13373313 rows and 1691930 columns (presolve time = 45s) ...
Presolve removed 13374823 rows and 1691930 columns (presolve time = 50s) ...
Presolve removed 13375797 rows and 1691930 columns (presolve time = 55s) ...
Presolve removed 13376942 rows and 1691930 columns (presolve time = 60s) ...
Presolve removed 13378138 rows and 1691930 columns (presolve time = 65s) ...
Presolve removed 13380351 rows and 1691930 columns (presolve time = 70s) ...
Presolve removed 13381537 rows and 1691930 columns (presolve time = 75s) ...
Presolve removed 13381537 rows and 1691930 columns (presolve time = 81s) ...
Presolve removed 13381537 rows and 1691930 columns (presolve time = 85s) ...
Presolve removed 13381542 rows and 1691930 columns (presolve time = 90s) ...
Presolve removed 13381732 rows and 1691930 columns (presolve time = 95s) ...
Presolve removed 13381732 rows and 1691930 columns (presolve time = 100s) ...
Presolve removed 13381732 rows and 1691930 columns (presolve time = 105s) ...
Presolve removed 13381732 rows and 1691930 columns (presolve time = 110s) ...
Presolve removed 13381732 rows and 1691930 columns (presolve time = 115s) ...
Presolve removed 13381732 rows and 1691930 columns (presolve time = 120s) ...
Presolve removed 13381732 rows and 1691930 columns (presolve time = 125s) ...
Presolve removed 13381732 rows and 1691930 columns (presolve time = 130s) ...
Presolve removed 13381732 rows and 1691930 columns (presolve time = 135s) ...
Presolve removed 13381732 rows and 1691930 columns (presolve time = 142s) ...
Presolve removed 13381732 rows and 1691930 columns (presolve time = 145s) ...
Sparsify removed 166 nonzeros (0%)
Presolve removed 13381732 rows and 1691912 columns
Presolve time: 149.37s
Presolved: 7940658 rows, 264278 columns, 24203385 nonzeros
Variable types: 0 continuous, 264278 integer (264278 binary)
Root relaxation presolved: 264278 rows, 8204936 columns, 24467663 nonzeros


Root simplex log...

Iteration    Objective       Primal Inf.    Dual Inf.      Time
       0   -0.0000000e+00   0.000000e+00   6.400000e+02    185s
    3189   -0.0000000e+00   0.000000e+00   2.249047e+05    186s
    8709    2.6470804e-02   0.000000e+00   1.165640e+06    191s
   14229    4.2076626e-02   0.000000e+00   1.122279e+06    196s
   19749    5.1954257e-02   0.000000e+00   1.340535e+06    200s
   28029    6.1969213e-02   0.000000e+00   1.429846e+06    207s
   33549    6.9306852e-02   0.000000e+00   5.165249e+05    211s
   41829    7.6939035e-02   0.000000e+00   4.931131e+05    217s
   47349    8.2090272e-02   0.000000e+00   3.998961e+05    222s
   52869    8.7146331e-02   0.000000e+00   6.051955e+05    226s
   58389    9.2340772e-02   0.000000e+00   1.031402e+06    231s
   66669    9.9515293e-02   0.000000e+00   2.899801e+05    237s
   72189    1.0348916e-01   0.000000e+00   4.714811e+05    242s
   77709    1.0681810e-01   0.000000e+00   4.667239e+05    246s
   85989    1.1179522e-01   0.000000e+00   2.200062e+05    252s
   88749    1.1306636e-01   0.000000e+00   3.134755e+05    255s
   97029    1.1720485e-01   0.000000e+00   4.675328e+05    261s
  102549    1.1992935e-01   0.000000e+00   5.065421e+05    265s
  108069    1.2334826e-01   0.000000e+00   3.842139e+05    271s
  116349    1.2816381e-01   0.000000e+00   3.748765e+05    277s
  121869    1.3111855e-01   0.000000e+00   1.327368e+06    281s
  127389    1.3317140e-01   0.000000e+00   1.942307e+05    286s
  132909    1.3561427e-01   0.000000e+00   1.976415e+05    292s
  138429    1.3800274e-01   0.000000e+00   7.535126e+05    296s
  143949    1.4017134e-01   0.000000e+00   6.382900e+05    301s
  149469    1.4205644e-01   0.000000e+00   9.432475e+05    306s
  154989    1.4458230e-01   0.000000e+00   2.320959e+05    310s
  163269    1.4801560e-01   0.000000e+00   5.606852e+05    316s
  168789    1.4990287e-01   0.000000e+00   1.976304e+05    321s
  174309    1.5177311e-01   0.000000e+00   4.601653e+05    326s
  179829    1.5353827e-01   0.000000e+00   2.388012e+05    331s
  185349    1.5554499e-01   0.000000e+00   1.191880e+05    336s
  193629    1.5809764e-01   0.000000e+00   4.787101e+05    342s
  199149    1.5962965e-01   0.000000e+00   2.282908e+05    346s
  204669    1.6093039e-01   0.000000e+00   2.144355e+05    352s
  210189    1.6277804e-01   0.000000e+00   2.289231e+05    356s
  218469    1.6510694e-01   0.000000e+00   2.620241e+05    362s
  223989    1.6675006e-01   0.000000e+00   1.501613e+05    367s
  229509    1.6810809e-01   0.000000e+00   1.280132e+05    371s
  237789    1.7025408e-01   0.000000e+00   1.386155e+05    377s
  243309    1.7183226e-01   0.000000e+00   1.006365e+05    381s
  248829    1.7317384e-01   0.000000e+00   1.403694e+05    386s
  254349    1.7461618e-01   0.000000e+00   1.378804e+05    390s
  262629    1.7653970e-01   0.000000e+00   2.919007e+05    396s
  268149    1.7821701e-01   0.000000e+00   1.311754e+05    401s
  273669    1.7941203e-01   0.000000e+00   1.455115e+05    405s
  281949    1.8182932e-01   0.000000e+00   8.018193e+04    412s
  287469    1.8300971e-01   0.000000e+00   9.572146e+04    417s
  292989    1.8425609e-01   0.000000e+00   1.276894e+05    421s
  298509    1.8554910e-01   0.000000e+00   5.730829e+05    425s
  306789    1.8735900e-01   0.000000e+00   1.261014e+05    432s
  312309    1.8864607e-01   0.000000e+00   3.180433e+05    436s
  317829    1.8993158e-01   0.000000e+00   7.184035e+04    441s
  323349    1.9088746e-01   0.000000e+00   1.703271e+05    446s
  328869    1.9213714e-01   0.000000e+00   4.625551e+05    451s
  337149    1.9399086e-01   0.000000e+00   1.300094e+05    457s
  342669    1.9516279e-01   0.000000e+00   7.431286e+04    461s
  348189    1.9642114e-01   0.000000e+00   1.118721e+05    465s
  356469    1.9778126e-01   0.000000e+00   4.415058e+05    471s
  361989    1.9879353e-01   0.000000e+00   1.138806e+05    475s
  367509    1.9989769e-01   0.000000e+00   3.798572e+05    480s
  375789    2.0148791e-01   0.000000e+00   2.681027e+05    487s
  381309    2.0254783e-01   0.000000e+00   1.818470e+05    491s
  386829    2.0372508e-01   0.000000e+00   1.672536e+05    496s
  392349    2.0478178e-01   0.000000e+00   1.923840e+05    501s
  397869    2.0572388e-01   0.000000e+00   3.017082e+05    505s
  403389    2.0676920e-01   0.000000e+00   4.703036e+05    511s
  408909    2.0780385e-01   0.000000e+00   1.956458e+05    516s
  414429    2.0881343e-01   0.000000e+00   2.372241e+05    520s
  419949    2.0977859e-01   0.000000e+00   2.199445e+05    526s
  425469    2.1077655e-01   0.000000e+00   1.741233e+05    531s
  430989    2.1173812e-01   0.000000e+00   1.260977e+05    536s
  436509    2.1271275e-01   0.000000e+00   9.499415e+04    541s
  442029    2.1370556e-01   0.000000e+00   1.752998e+05    546s
  447549    2.1471932e-01   0.000000e+00   1.845000e+05    551s
  453069    2.1575669e-01   0.000000e+00   1.220764e+05    556s
  458589    2.1673081e-01   0.000000e+00   3.098092e+05    561s
  464109    2.1799133e-01   0.000000e+00   6.409606e+04    566s
  469629    2.1890054e-01   0.000000e+00   2.528218e+05    570s
  475149    2.1986659e-01   0.000000e+00   1.012309e+05    576s
  480669    2.2079309e-01   0.000000e+00   1.960059e+04    581s
  486189    2.2161803e-01   0.000000e+00   2.114079e+05    588s
  488949    2.2212360e-01   0.000000e+00   9.473797e+04    591s
  494469    2.2300002e-01   0.000000e+00   2.613689e+05    596s
  499989    2.2378986e-01   0.000000e+00   3.356980e+05    601s
  505509    2.2467765e-01   0.000000e+00   1.241617e+05    606s
  511029    2.2557144e-01   0.000000e+00   1.532401e+05    611s
  516549    2.2649695e-01   0.000000e+00   1.997071e+05    616s
  522069    2.2740893e-01   0.000000e+00   1.463486e+05    621s
  527589    2.2829227e-01   0.000000e+00   8.297058e+04    627s
  533109    2.2923118e-01   0.000000e+00   2.994745e+05    631s
  538629    2.3006480e-01   0.000000e+00   8.260839e+04    636s
  544149    2.3096255e-01   0.000000e+00   2.120726e+05    642s
  549669    2.3185920e-01   0.000000e+00   1.477758e+05    647s
  555189    2.3267407e-01   0.000000e+00   1.006644e+05    651s
  560709    2.3341307e-01   0.000000e+00   1.097030e+05    657s
  566229    2.3412113e-01   0.000000e+00   1.076662e+05    661s
  571749    2.3509222e-01   0.000000e+00   3.691535e+04    666s
  577269    2.3641381e-01   0.000000e+00   6.847260e+04    672s
  582789    2.3746648e-01   0.000000e+00   7.274113e+04    676s
  588309    2.3830820e-01   0.000000e+00   5.712394e+05    680s
  596589    2.3944391e-01   0.000000e+00   4.000314e+05    687s
  602109    2.4025531e-01   0.000000e+00   2.140560e+05    691s
  607629    2.4104925e-01   0.000000e+00   2.932354e+04    696s
  613149    2.4180271e-01   0.000000e+00   6.275371e+04    700s
  618669    2.4257735e-01   0.000000e+00   1.560870e+05    705s
  626949    2.4376578e-01   0.000000e+00   3.494413e+05    711s
  632469    2.4440889e-01   0.000000e+00   6.820933e+04    715s
  637989    2.4520677e-01   0.000000e+00   2.260077e+05    721s
  646269    2.4626167e-01   0.000000e+00   1.238379e+05    727s
  651789    2.4706757e-01   0.000000e+00   5.594754e+04    731s
  657309    2.4779408e-01   0.000000e+00   1.183310e+05    736s
  662829    2.4853508e-01   0.000000e+00   1.124119e+05    742s
  668349    2.4944287e-01   0.000000e+00   4.539160e+04    747s
  673869    2.5022654e-01   0.000000e+00   8.037538e+04    752s
  679389    2.5102780e-01   0.000000e+00   1.821972e+05    756s
  684909    2.5173503e-01   0.000000e+00   5.055230e+04    760s
  690429    2.5246155e-01   0.000000e+00   2.294429e+05    765s
  698709    2.5349171e-01   0.000000e+00   1.256497e+05    772s
  704229    2.5438580e-01   0.000000e+00   1.509752e+05    776s
  709749    2.5509277e-01   0.000000e+00   2.114498e+04    781s
  715269    2.5610882e-01   0.000000e+00   3.008636e+04    786s
  720789    2.5690502e-01   0.000000e+00   8.391611e+04    790s
  729069    2.5832103e-01   0.000000e+00   5.115980e+04    797s
  734589    2.5935740e-01   0.000000e+00   4.530907e+04    802s
  740109    2.6000982e-01   0.000000e+00   5.081596e+04    806s
  745629    2.6066073e-01   0.000000e+00   1.064883e+05    811s
  751149    2.6155891e-01   0.000000e+00   7.059310e+04    816s
  759429    2.6294233e-01   0.000000e+00   8.410303e+04    822s
  764949    2.6360914e-01   0.000000e+00   1.476035e+05    826s
  770469    2.6422107e-01   0.000000e+00   1.295332e+05    831s
  778749    2.6519340e-01   0.000000e+00   4.947102e+04    837s
  784269    2.6584509e-01   0.000000e+00   1.253106e+05    841s
  789789    2.6685186e-01   0.000000e+00   4.759849e+05    846s
  795309    2.6758364e-01   0.000000e+00   2.717206e+05    851s
  803589    2.6901211e-01   0.000000e+00   1.761558e+05    857s
  809109    2.7007949e-01   0.000000e+00   7.657001e+03    862s
  814629    2.7083302e-01   0.000000e+00   2.291900e+04    867s
  820149    2.7151168e-01   0.000000e+00   3.828829e+04    871s
  825669    2.7230890e-01   0.000000e+00   2.767421e+04    876s
  831189    2.7319982e-01   0.000000e+00   7.376585e+04    882s
  836709    2.7401754e-01   0.000000e+00   3.404364e+04    887s
  842229    2.7472843e-01   0.000000e+00   3.438635e+04    892s
  847749    2.7547866e-01   0.000000e+00   2.406194e+04    897s
  853269    2.7645750e-01   0.000000e+00   6.390380e+03    902s
  858789    2.7727993e-01   0.000000e+00   1.112530e+04    907s
  861549    2.7754272e-01   0.000000e+00   4.693874e+04    910s
  867069    2.7852297e-01   0.000000e+00   2.011675e+04    915s
  875349    2.7985084e-01   0.000000e+00   1.532982e+04    922s
  880869    2.8050350e-01   0.000000e+00   1.853736e+04    928s
  883629    2.8087382e-01   0.000000e+00   2.050626e+04    930s
  891909    2.8225919e-01   0.000000e+00   3.360446e+04    937s
  897429    2.8306809e-01   0.000000e+00   5.069639e+03    942s
  900189    2.8341255e-01   0.000000e+00   6.600893e+03    945s
  908469    2.8474141e-01   0.000000e+00   3.766888e+03    952s
  913989    2.8560583e-01   0.000000e+00   1.095438e+05    957s
  919509    2.8635722e-01   0.000000e+00   9.188211e+05    962s
  925029    2.8691341e-01   0.000000e+00   4.772469e+04    966s
  930549    2.8753184e-01   0.000000e+00   7.410897e+04    970s
  936069    2.8817992e-01   0.000000e+00   9.898877e+04    975s
  944349    2.8916533e-01   0.000000e+00   1.997179e+04    982s
  949869    2.8992621e-01   0.000000e+00   9.545941e+03    986s
  955389    2.9062737e-01   0.000000e+00   8.985577e+03    992s
  960909    2.9130781e-01   0.000000e+00   9.042907e+04    997s
  966429    2.9222723e-01   0.000000e+00   1.130561e+05   1002s
  971949    2.9283056e-01   0.000000e+00   7.964341e+04   1008s
  974709    2.9327273e-01   0.000000e+00   2.688394e+03   1010s
  982989    2.9427686e-01   0.000000e+00   3.327778e+04   1017s
  988509    2.9504479e-01   0.000000e+00   3.599829e+03   1022s
  994029    2.9578635e-01   0.000000e+00   7.458739e+03   1027s
  999549    2.9642599e-01   0.000000e+00   4.204969e+03   1032s
 1005069    2.9701962e-01   0.000000e+00   3.230209e+04   1037s
 1010589    2.9790501e-01   0.000000e+00   7.987232e+03   1042s
 1016109    2.9847513e-01   0.000000e+00   3.992726e+03   1047s
 1021629    2.9916574e-01   0.000000e+00   6.546261e+03   1052s
 1027149    2.9984566e-01   0.000000e+00   2.670648e+03   1057s
 1032669    3.0051074e-01   0.000000e+00   3.714994e+03   1062s
 1038189    3.0135809e-01   0.000000e+00   4.353675e+03   1066s
 1043709    3.0209752e-01   0.000000e+00   7.164964e+03   1072s
 1049229    3.0283386e-01   0.000000e+00   3.168631e+03   1076s
 1054749    3.0335919e-01   0.000000e+00   4.837252e+05   1081s
 1060269    3.0408007e-01   0.000000e+00   2.482520e+04   1086s
 1065789    3.0482992e-01   0.000000e+00   3.176522e+03   1091s
 1071309    3.0545810e-01   0.000000e+00   7.461338e+03   1095s
 1079589    3.0642668e-01   0.000000e+00   5.790392e+03   1103s
 1082349    3.0678466e-01   0.000000e+00   7.715320e+03   1105s
 1090629    3.0784256e-01   0.000000e+00   2.307747e+04   1112s
 1096149    3.0850297e-01   0.000000e+00   2.271931e+03   1117s
 1101669    3.0918827e-01   0.000000e+00   1.801381e+04   1122s
 1107189    3.0988541e-01   0.000000e+00   5.118618e+03   1126s
 1112709    3.1034567e-01   0.000000e+00   2.349652e+04   1131s
 1118229    3.1091065e-01   0.000000e+00   2.370352e+04   1136s
 1123749    3.1178902e-01   0.000000e+00   2.470698e+03   1141s
 1129269    3.1241802e-01   0.000000e+00   2.020357e+05   1145s
 1134789    3.1308582e-01   0.000000e+00   3.110831e+03   1150s
 1143069    3.1397970e-01   0.000000e+00   2.234931e+03   1157s
 1148589    3.1467294e-01   0.000000e+00   2.127955e+04   1162s
 1154109    3.1531415e-01   0.000000e+00   1.025289e+03   1167s
 1159629    3.1602548e-01   0.000000e+00   3.227959e+04   1172s
 1165149    3.1643170e-01   0.000000e+00   3.753403e+04   1176s
 1170669    3.1713670e-01   0.000000e+00   1.810930e+04   1181s
 1176189    3.1760005e-01   0.000000e+00   3.824766e+04   1186s
 1181709    3.1832328e-01   0.000000e+00   2.752535e+04   1191s
 1187229    3.1873351e-01   0.000000e+00   1.678905e+05   1195s

Root relaxation: time limit, 1191603 iterations, 1030.24 seconds (2653.72 work units)

    Nodes    |    Current Node    |     Objective Bounds      |     Work
 Expl Unexpl |  Obj  Depth IntInf | Incumbent    BestBd   Gap | It/Node Time

     0     0          -    0               -    0.00000      -     - 1200s

Explored 1 nodes (1191603 simplex iterations) in 1200.20 seconds (2785.07 work units)
Thread count was 1 (of 12 available processors)

Solution count 0

Time limit reached
Best objective -, best bound 0.000000000000e+00, gap -
Gurobi Optimizer version 10.0.2 build v10.0.2rc0 (win64)

CPU model: 12th Gen Intel(R) Core(TM) i5-1235U, instruction set [SSE2|AVX|AVX2]
Thread count: 10 physical cores, 12 logical processors, using up to 1 threads

Optimize a model with 21322390 rows, 1956190 columns and 27435850 nonzeros
Model fingerprint: 0xc62f1b43
Variable types: 0 continuous, 1956190 integer (1956190 binary)
Coefficient statistics:
  Matrix range     [1e+00, 1e+00]
  Objective range  [5e-05, 6e-01]
  Bounds range     [1e+00, 1e+00]
  RHS range        [1e+00, 1e+00]
Presolved: 7940658 rows, 264278 columns, 24203385 nonzeros

Continuing optimization...

     0     0          -    0               -    0.00000      -     - 2400s

Explored 1 nodes (2557456 simplex iterations) in 1200.20 seconds (3076.91 work units)
Thread count was 1 (of 12 available processors)

Solution count 0

Time limit reached
Best objective -, best bound 0.000000000000e+00, gap -
Gurobi Optimizer version 10.0.2 build v10.0.2rc0 (win64)

CPU model: 12th Gen Intel(R) Core(TM) i5-1235U, instruction set [SSE2|AVX|AVX2]
Thread count: 10 physical cores, 12 logical processors, using up to 1 threads

Optimize a model with 21322390 rows, 1956190 columns and 27435850 nonzeros
Model fingerprint: 0xc62f1b43
Variable types: 0 continuous, 1956190 integer (1956190 binary)
Coefficient statistics:
  Matrix range     [1e+00, 1e+00]
  Objective range  [5e-05, 6e-01]
  Bounds range     [1e+00, 1e+00]
  RHS range        [1e+00, 1e+00]
Presolved: 7940658 rows, 264278 columns, 24203385 nonzeros

Continuing optimization...

     0     0          -    0               -    0.00000      -     - 3600s

Explored 1 nodes (3933469 simplex iterations) in 1200.25 seconds (3101.34 work units)
Thread count was 1 (of 12 available processors)

Solution count 0

Time limit reached
Best objective -, best bound 0.000000000000e+00, gap -
Gurobi Optimizer version 10.0.2 build v10.0.2rc0 (win64)

CPU model: 12th Gen Intel(R) Core(TM) i5-1235U, instruction set [SSE2|AVX|AVX2]
Thread count: 10 physical cores, 12 logical processors, using up to 1 threads

Optimize a model with 21322390 rows, 1956190 columns and 27435850 nonzeros
Model fingerprint: 0xc62f1b43
Variable types: 0 continuous, 1956190 integer (1956190 binary)
Coefficient statistics:
  Matrix range     [1e+00, 1e+00]
  Objective range  [5e-05, 6e-01]
  Bounds range     [1e+00, 1e+00]
  RHS range        [1e+00, 1e+00]
Presolved: 7940658 rows, 264278 columns, 24203385 nonzeros

Continuing optimization...

     0     0          -    0               -    0.00000      -     - 4800s

Explored 1 nodes (5363578 simplex iterations) in 1200.29 seconds (3231.97 work units)
Thread count was 1 (of 12 available processors)

Solution count 0

Time limit reached
Best objective -, best bound 0.000000000000e+00, gap -
Gurobi Optimizer version 10.0.2 build v10.0.2rc0 (win64)

CPU model: 12th Gen Intel(R) Core(TM) i5-1235U, instruction set [SSE2|AVX|AVX2]
Thread count: 10 physical cores, 12 logical processors, using up to 1 threads

Optimize a model with 21322390 rows, 1956190 columns and 27435850 nonzeros
Model fingerprint: 0xc62f1b43
Variable types: 0 continuous, 1956190 integer (1956190 binary)
Coefficient statistics:
  Matrix range     [1e+00, 1e+00]
  Objective range  [5e-05, 6e-01]
  Bounds range     [1e+00, 1e+00]
  RHS range        [1e+00, 1e+00]
Presolved: 7940658 rows, 264278 columns, 24203385 nonzeros

Continuing optimization...

     0     0          -    0               -    0.00000      -     - 6001s

Explored 1 nodes (6737330 simplex iterations) in 1200.17 seconds (3095.64 work units)
Thread count was 1 (of 12 available processors)

Solution count 0

Time limit reached
Best objective -, best bound 0.000000000000e+00, gap -
Gurobi Optimizer version 10.0.2 build v10.0.2rc0 (win64)

CPU model: 12th Gen Intel(R) Core(TM) i5-1235U, instruction set [SSE2|AVX|AVX2]
Thread count: 10 physical cores, 12 logical processors, using up to 1 threads

Optimize a model with 21322390 rows, 1956190 columns and 27435850 nonzeros
Model fingerprint: 0xc62f1b43
Variable types: 0 continuous, 1956190 integer (1956190 binary)
Coefficient statistics:
  Matrix range     [1e+00, 1e+00]
  Objective range  [5e-05, 6e-01]
  Bounds range     [1e+00, 1e+00]
  RHS range        [1e+00, 1e+00]
Presolved: 7940658 rows, 264278 columns, 24203385 nonzeros

Continuing optimization...

     0     0          -    0               -    0.00000      -     - 7201s

Explored 1 nodes (8163299 simplex iterations) in 1200.19 seconds (3221.97 work units)
Thread count was 1 (of 12 available processors)

Solution count 0

Time limit reached
Best objective -, best bound 0.000000000000e+00, gap -

Gurobi 10.0.2 (win64, Python) logging started Sun Feb  4 16:21:03 2024

Set parameter Username
Set parameter LogFile to value "C:\Users\ghadi\Downloads\Discrete Optimization Project - Gurobi- Instance 6\Discrete Optimization Project - Instance 6-Log File.log"
Academic license - for non-commercial use only - expires 2024-07-07
Set parameter Threads to value 1
Set parameter Presolve to value 1
Set parameter Method to value 0
Set parameter TimeLimit to value 1200
Set parameter PreSparsify to value 1
